SDVRP instances/custom_instances/p04_2_splitx10_0.vrp
NAME:p04_2_splitx10_
BEST_KNOWN: 0
COMMENT: 0
DIMENSION: 683
CAPACITY: 2000
EDGE_WEIGHT_FORMAT: FUNCTION
EDGE_WEIGHT_TYPE: EXACT_2D
NODE_COORD_SECTION
1 0.00000 0.00000
2 -19 10
3 -19 10
4 -19 10
5 19 49
6 19 49
7 19 49
8 19 49
9 18 37
10 18 37
11 18 37
12 18 37
13 18 37
14 18 37
15 18 37
16 18 37
17 47 -5
18 47 -5
19 47 -5
20 47 -5
21 47 -5
22 37 -27
23 37 -27
24 37 -27
25 0 -23
26 0 -23
27 0 -23
28 0 -23
29 0 -23
30 0 -23
31 38 -40
32 38 -40
33 38 -40
34 36 -43
35 36 -43
36 31 -6
37 31 -6
38 31 -6
39 27 42
40 27 42
41 27 42
42 27 42
43 27 42
44 27 42
45 27 42
46 46 -21
47 46 -21
48 46 -21
49 46 -21
50 46 -21
51 46 -21
52 -27 -32
53 -27 -32
54 -27 -32
55 -27 -32
56 -20 31
57 -20 31
58 -20 31
59 -20 31
60 -20 31
61 8 -35
62 8 -35
63 8 -35
64 8 -35
65 8 -35
66 8 -35
67 22 -1
68 22 -1
69 22 -1
70 22 -1
71 -35 -19
72 -35 -19
73 -35 -19
74 -35 -19
75 44 -21
76 44 -21
77 44 -21
78 44 -21
79 44 -21
80 -14 -33
81 -14 -33
82 -30 34
83 -30 34
84 -30 34
85 -7 30
86 -7 30
87 -13 47
88 -13 47
89 -13 47
90 -13 47
91 -13 47
92 -13 47
93 -46 27
94 -46 27
95 1 38
96 1 38
97 1 38
98 1 38
99 1 38
100 1 38
101 35 -38
102 35 -38
103 35 -38
104 35 -38
105 28 -5
106 28 -5
107 28 -5
108 28 -5
109 28 -5
110 28 -5
111 28 -5
112 28 -5
113 38 10
114 38 10
115 38 10
116 38 10
117 38 10
118 38 10
119 38 10
120 10 -31
121 10 -31
122 10 -31
123 10 -31
124 10 -31
125 -37 31
126 -37 31
127 -37 31
128 41 -7
129 41 -7
130 41 -7
131 41 -7
132 41 -7
133 41 21
134 2 -6
135 2 -6
136 2 -6
137 2 -6
138 30 -12
139 30 -12
140 30 -12
141 30 -12
142 -24 43
143 -24 43
144 -24 43
145 -46 -36
146 -46 -36
147 -46 -36
148 -46 -36
149 -46 -36
150 -46 -36
151 -46 -36
152 -16 -28
153 -16 -28
154 -16 -28
155 -16 -28
156 -16 -28
157 -16 -28
158 34 -5
159 34 -5
160 34 -5
161 -48 -18
162 -48 -18
163 -48 -18
164 -48 -18
165 -48 -18
166 -48 -18
167 -48 -18
168 -48 -18
169 -13 38
170 -13 38
171 -13 38
172 -13 38
173 -13 38
174 -13 38
175 -13 38
176 -15 -15
177 -15 -15
178 -15 -15
179 -15 -15
180 -15 -15
181 27 -22
182 27 -22
183 27 -22
184 -39 -31
185 -39 -31
186 -39 -31
187 -39 -31
188 -39 -31
189 -39 -31
190 -39 -31
191 4 19
192 -7 45
193 -7 45
194 -7 45
195 -7 45
196 0 4
197 0 4
198 0 4
199 0 4
200 -28 15
201 -28 15
202 -28 15
203 -28 15
204 -28 15
205 25 -44
206 25 -44
207 -6 20
208 -6 20
209 -6 20
210 -6 20
211 -6 20
212 -6 20
213 -6 20
214 4 -31
215 4 -31
216 4 -31
217 4 -31
218 -6 10
219 -6 10
220 -6 10
221 -6 10
222 -6 10
223 -38 10
224 -38 10
225 -38 10
226 44 -2
227 44 -2
228 44 -2
229 44 -2
230 44 -2
231 44 -2
232 44 -2
233 40 17
234 40 17
235 -35 32
236 -35 32
237 -35 32
238 31 5
239 31 5
240 31 5
241 31 5
242 31 5
243 -21 26
244 -21 26
245 -21 26
246 -21 26
247 -21 26
248 -21 26
249 -38 5
250 -38 5
251 -38 5
252 -38 5
253 -38 5
254 -37 31
255 -37 31
256 -37 31
257 -37 31
258 -37 31
259 -24 -23
260 -24 -23
261 -24 -23
262 -24 -23
263 39 -49
264 39 -49
265 -34 -3
266 -34 -3
267 -34 -3
268 -34 -3
269 -6 -42
270 -6 -42
271 -6 -42
272 -6 -42
273 -6 -42
274 -6 -42
275 -6 -42
276 -15 15
277 -15 15
278 -15 15
279 -15 15
280 -38 -21
281 -38 -21
282 -38 -21
283 -38 -21
284 -38 -21
285 -38 -21
286 -38 -21
287 -15 -17
288 -15 -17
289 -15 -17
290 -15 -17
291 -15 -17
292 -15 -17
293 -3 -46
294 -3 -46
295 -3 -46
296 -40 35
297 -40 35
298 -40 35
299 -40 35
300 -40 35
301 -40 35
302 -40 35
303 -35 23
304 -35 23
305 -35 23
306 -35 23
307 26 2
308 26 2
309 26 2
310 -47 -49
311 -47 -49
312 -47 -49
313 -32 18
314 -32 18
315 -32 18
316 -32 18
317 -32 18
318 -36 28
319 -36 28
320 -36 28
321 -36 28
322 33 -46
323 33 -46
324 33 -46
325 33 -46
326 22 12
327 22 12
328 22 12
329 22 12
330 22 12
331 22 12
332 1 -5
333 1 -5
334 1 -5
335 1 -5
336 -36 -3
337 -36 -3
338 -36 -3
339 -36 -3
340 -36 -3
341 -36 -3
342 -36 -3
343 -18 -15
344 -18 -15
345 -18 -15
346 -12 8
347 -12 8
348 46 37
349 46 37
350 46 37
351 46 37
352 15 -2
353 15 -2
354 15 -2
355 15 -2
356 15 -2
357 15 -2
358 15 -2
359 -21 -45
360 -21 -45
361 -21 -45
362 -36 31
363 -36 31
364 -36 31
365 -36 31
366 -36 31
367 -40 -26
368 -40 -26
369 -40 -26
370 19 -12
371 -24 -35
372 -24 -35
373 -24 -35
374 -24 -35
375 -24 -35
376 -32 18
377 -32 18
378 -32 18
379 -32 18
380 -32 18
381 -32 18
382 2 36
383 2 36
384 2 36
385 2 36
386 -6 -12
387 -6 -12
388 -6 -12
389 -6 -12
390 -6 -12
391 -6 -12
392 -28 -49
393 -28 -49
394 -28 -49
395 -28 -49
396 -28 -49
397 -28 -49
398 40 38
399 40 38
400 40 38
401 32 4
402 32 4
403 32 4
404 32 4
405 32 4
406 32 4
407 -49 29
408 -49 29
409 -49 29
410 23 15
411 23 15
412 23 15
413 23 15
414 23 15
415 19 -39
416 19 -39
417 19 -39
418 19 -39
419 19 -39
420 32 37
421 32 37
422 32 37
423 32 37
424 -1 13
425 -1 13
426 -1 13
427 -1 13
428 -1 13
429 -1 13
430 -49 -48
431 -49 -48
432 -49 -48
433 -49 -48
434 -49 -48
435 -21 -37
436 -21 -37
437 -21 -37
438 -10 47
439 -10 47
440 -10 47
441 49 35
442 49 35
443 49 35
444 49 35
445 49 35
446 49 35
447 49 35
448 24 -38
449 24 -38
450 24 -38
451 24 -38
452 24 -38
453 24 -38
454 -42 35
455 -42 35
456 -42 35
457 -42 35
458 -42 35
459 -42 35
460 -42 35
461 22 -20
462 22 -20
463 22 -20
464 22 -20
465 22 -20
466 -27 0
467 -27 0
468 -27 0
469 -27 0
470 -27 0
471 -44 -15
472 -44 -15
473 -44 -15
474 -44 -15
475 -38 -23
476 -38 -23
477 -38 -23
478 -38 -23
479 -50 41
480 -50 41
481 -50 41
482 -50 41
483 -50 41
484 7 -36
485 7 -36
486 7 -36
487 7 -36
488 -38 -37
489 -38 -37
490 -38 -37
491 14 39
492 14 39
493 14 39
494 14 39
495 14 39
496 2 31
497 2 31
498 2 31
499 2 31
500 -36 15
501 -36 15
502 -36 15
503 -36 15
504 -36 15
505 -36 15
506 24 -35
507 24 -35
508 24 -35
509 24 -35
510 24 -35
511 24 -35
512 24 -35
513 46 34
514 46 34
515 46 34
516 46 34
517 -38 8
518 -38 8
519 -38 8
520 -38 8
521 13 -36
522 13 -36
523 13 -36
524 13 -36
525 13 -36
526 13 -36
527 13 -36
528 48 12
529 48 12
530 48 12
531 -20 18
532 -20 18
533 -20 18
534 -20 18
535 -20 18
536 -20 18
537 -20 18
538 7 45
539 7 45
540 7 45
541 7 45
542 7 45
543 20 -50
544 20 -50
545 20 -50
546 20 -50
547 20 -50
548 28 13
549 28 13
550 28 13
551 28 13
552 28 13
553 5 -43
554 5 -43
555 5 -43
556 5 -43
557 5 -43
558 5 -43
559 5 -43
560 -41 -5
561 -41 -5
562 -41 -5
563 -41 -5
564 -41 -5
565 -41 -5
566 -8 -35
567 -8 -35
568 -8 -35
569 40 36
570 40 36
571 40 36
572 40 36
573 40 36
574 40 36
575 40 36
576 39 22
577 39 22
578 39 22
579 39 22
580 38 15
581 38 15
582 38 15
583 38 15
584 7 12
585 7 12
586 7 12
587 7 12
588 7 12
589 7 12
590 36 -14
591 36 -14
592 36 -14
593 36 -14
594 36 -14
595 36 -14
596 -48 42
597 -48 42
598 -48 42
599 -48 42
600 -48 42
601 -44 -49
602 -44 -49
603 -44 -49
604 -44 -49
605 -44 -49
606 24 -16
607 24 -16
608 24 -16
609 -23 37
610 35 -8
611 35 -8
612 35 -8
613 35 -8
614 35 -8
615 35 -8
616 -6 4
617 -6 4
618 -6 4
619 -6 4
620 -6 4
621 -6 4
622 36 48
623 36 48
624 -31 15
625 -31 15
626 -49 49
627 -49 49
628 -49 49
629 -49 49
630 -49 49
631 -49 49
632 -49 49
633 -12 28
634 -12 28
635 -12 28
636 -12 28
637 42 -19
638 42 -19
639 42 -19
640 -48 -26
641 -48 -26
642 -48 -26
643 -50 1
644 -50 1
645 -31 -48
646 -31 -48
647 -31 -48
648 -31 -48
649 -31 -48
650 -6 -15
651 -6 -15
652 -6 -15
653 -6 -15
654 13 37
655 13 37
656 13 37
657 13 37
658 13 37
659 -36 -41
660 -36 -41
661 -36 -41
662 5 30
663 5 30
664 5 30
665 5 30
666 5 30
667 -28 19
668 -28 19
669 -28 19
670 -28 19
671 -28 19
672 -46 -33
673 -46 -33
674 -46 -33
675 -46 -33
676 -46 -33
677 10 -49
678 10 -49
679 33 34
680 33 34
681 33 34
682 33 34
683 33 34
DEMAND_SECTION
1 0
2 400
3 20
4 10
5 400
6 400
7 100
8 10
9 400
10 400
11 100
12 20
13 20
14 20
15 20
16 10
17 400
18 100
19 20
20 20
21 20
22 400
23 400
24 20
25 400
26 400
27 100
28 20
29 20
30 10
31 400
32 100
33 20
34 400
35 200
36 200
37 100
38 20
39 400
40 100
41 20
42 20
43 20
44 20
45 10
46 400
47 400
48 20
49 20
50 20
51 10
52 200
53 100
54 20
55 20
56 400
57 400
58 100
59 20
60 10
61 400
62 100
63 20
64 20
65 20
66 20
67 400
68 100
69 20
70 20
71 200
72 20
73 20
74 20
75 400
76 20
77 20
78 20
79 20
80 400
81 10
82 200
83 100
84 20
85 400
86 400
87 400
88 400
89 100
90 20
91 20
92 20
93 400
94 100
95 400
96 400
97 20
98 20
99 20
100 10
101 400
102 200
103 100
104 20
105 400
106 200
107 100
108 20
109 20
110 20
111 20
112 10
113 400
114 400
115 100
116 20
117 20
118 20
119 20
120 400
121 200
122 100
123 20
124 20
125 200
126 100
127 20
128 400
129 20
130 20
131 20
132 20
133 400
134 200
135 20
136 20
137 20
138 200
139 100
140 20
141 10
142 400
143 200
144 20
145 400
146 100
147 20
148 20
149 20
150 20
151 10
152 400
153 100
154 20
155 20
156 20
157 10
158 400
159 400
160 20
161 400
162 200
163 100
164 20
165 20
166 20
167 20
168 10
169 400
170 200
171 100
172 20
173 20
174 20
175 10
176 200
177 100
178 20
179 20
180 10
181 400
182 400
183 20
184 200
185 100
186 20
187 20
188 20
189 20
190 10
191 400
192 400
193 400
194 20
195 20
196 400
197 400
198 20
199 10
200 400
201 100
202 20
203 20
204 20
205 400
206 100
207 400
208 200
209 100
210 20
211 20
212 20
213 10
214 400
215 200
216 20
217 10
218 200
219 100
220 20
221 20
222 20
223 400
224 400
225 20
226 400
227 400
228 100
229 20
230 20
231 20
232 10
233 400
234 100
235 400
236 100
237 10
238 200
239 100
240 20
241 20
242 10
243 200
244 100
245 20
246 20
247 20
248 20
249 400
250 20
251 20
252 20
253 20
254 400
255 400
256 20
257 20
258 10
259 400
260 100
261 20
262 10
263 400
264 10
265 400
266 100
267 20
268 20
269 200
270 100
271 20
272 20
273 20
274 20
275 10
276 400
277 100
278 20
279 10
280 400
281 400
282 100
283 20
284 20
285 20
286 20
287 200
288 20
289 20
290 20
291 20
292 10
293 400
294 200
295 10
296 400
297 400
298 100
299 20
300 20
301 20
302 20
303 400
304 200
305 20
306 10
307 400
308 400
309 100
310 400
311 20
312 10
313 200
314 100
315 20
316 20
317 10
318 200
319 100
320 20
321 20
322 400
323 400
324 20
325 10
326 400
327 400
328 20
329 20
330 20
331 20
332 400
333 200
334 20
335 10
336 400
337 200
338 100
339 20
340 20
341 20
342 10
343 400
344 20
345 20
346 400
347 400
348 400
349 200
350 20
351 10
352 400
353 400
354 100
355 20
356 20
357 20
358 20
359 400
360 100
361 10
362 400
363 400
364 100
365 20
366 20
367 400
368 100
369 20
370 400
371 400
372 200
373 100
374 20
375 10
376 200
377 100
378 20
379 20
380 20
381 20
382 400
383 400
384 20
385 20
386 400
387 400
388 100
389 20
390 20
391 20
392 400
393 100
394 20
395 20
396 20
397 10
398 400
399 200
400 100
401 400
402 20
403 20
404 20
405 20
406 10
407 400
408 100
409 10
410 400
411 200
412 20
413 20
414 20
415 400
416 400
417 100
418 20
419 20
420 400
421 400
422 100
423 20
424 400
425 400
426 20
427 20
428 20
429 10
430 200
431 100
432 20
433 20
434 20
435 200
436 100
437 10
438 400
439 20
440 10
441 400
442 200
443 100
444 20
445 20
446 20
447 10
448 200
449 100
450 20
451 20
452 20
453 20
454 400
455 400
456 20
457 20
458 20
459 20
460 10
461 400
462 100
463 20
464 20
465 10
466 200
467 20
468 20
469 20
470 10
471 400
472 400
473 100
474 10
475 400
476 400
477 100
478 20
479 200
480 20
481 20
482 20
483 20
484 200
485 20
486 20
487 10
488 200
489 100
490 10
491 400
492 200
493 20
494 20
495 10
496 400
497 200
498 100
499 10
500 400
501 100
502 20
503 20
504 20
505 10
506 400
507 200
508 100
509 20
510 20
511 20
512 10
513 400
514 200
515 20
516 20
517 400
518 400
519 20
520 20
521 200
522 100
523 20
524 20
525 20
526 20
527 10
528 400
529 200
530 100
531 400
532 200
533 100
534 20
535 20
536 20
537 20
538 400
539 400
540 20
541 20
542 10
543 400
544 20
545 20
546 20
547 10
548 400
549 400
550 20
551 20
552 20
553 400
554 200
555 100
556 20
557 20
558 20
559 20
560 400
561 100
562 20
563 20
564 20
565 10
566 400
567 400
568 200
569 400
570 400
571 20
572 20
573 20
574 20
575 10
576 400
577 100
578 20
579 10
580 200
581 100
582 20
583 10
584 400
585 400
586 100
587 20
588 20
589 20
590 400
591 200
592 20
593 20
594 20
595 10
596 400
597 400
598 20
599 20
600 20
601 400
602 200
603 100
604 20
605 10
606 400
607 400
608 100
609 400
610 400
611 20
612 20
613 20
614 20
615 10
616 400
617 400
618 100
619 20
620 20
621 10
622 200
623 100
624 400
625 10
626 400
627 400
628 100
629 20
630 20
631 20
632 20
633 400
634 20
635 20
636 10
637 400
638 20
639 10
640 400
641 20
642 10
643 400
644 400
645 400
646 400
647 100
648 20
649 20
650 400
651 400
652 20
653 20
654 400
655 400
656 20
657 20
658 20
659 400
660 100
661 10
662 400
663 100
664 20
665 20
666 20
667 400
668 400
669 100
670 20
671 20
672 200
673 20
674 20
675 20
676 20
677 400
678 400
679 200
680 20
681 20
682 20
683 10
DEPOT_SECTION
1
-1
EOF