SDVRP instances/custom_instances/p04_2_splitx10_0.sol
682 -7 6 4 5 8 13 10 11 12 14 15 9 -23 21 22 30 32 103 100 102 101 -26 28 27 29 25 24 213 215 214 216 331 334 -31 34 33 263 262 324 321 323 322 -44 42 38 43 41 40 39 421 419 422 420 681 680 682 678 679 -67 69 68 66 106 110 104 109 111 353 351 352 -70 71 73 72 280 279 474 476 475 477 -83 81 82 297 457 458 459 456 479 481 480 482 478 406 408 407 93 92 379 376 203 201 202 -84 85 207 206 211 212 209 210 208 220 218 217 219 221 -99 94 95 97 98 96 382 384 497 496 498 495 -105 107 108 35 37 36 610 611 613 612 614 609 157 159 158 357 356 355 354 -114 113 118 117 115 112 116 527 528 529 579 580 581 -127 131 18 20 17 19 16 230 225 229 226 231 228 227 -128 129 130 46 49 47 50 48 45 74 77 78 76 75 638 637 636 592 139 -135 134 120 122 121 123 119 525 526 523 522 521 520 524 62 64 63 60 61 65 486 483 485 484 -136 133 181 182 180 589 591 593 594 590 137 138 140 -153 154 152 156 155 151 79 80 566 567 565 -173 174 169 168 59 58 57 55 56 242 243 247 244 246 245 -177 178 175 176 179 288 289 286 291 290 287 53 52 54 51 260 258 259 261 344 343 342 -185 187 186 184 189 188 183 488 487 489 660 659 658 373 370 372 371 374 -190 655 654 656 653 657 492 491 494 493 490 -192 193 194 191 142 141 143 608 -195 196 198 197 616 619 620 615 618 617 -199 667 670 669 668 666 530 531 533 535 -200 623 624 502 504 503 500 501 499 222 224 223 -234 236 361 362 363 364 365 305 303 304 314 312 375 -239 238 237 241 240 403 404 402 400 405 401 308 306 307 -256 125 126 253 254 257 255 124 317 302 378 313 377 315 316 380 -267 265 266 561 564 563 560 161 163 160 165 166 167 162 164 470 472 473 471 -268 271 269 270 274 272 273 294 293 292 553 552 558 557 555 554 556 333 332 -278 277 276 275 3 1 2 346 345 -282 284 281 285 283 640 641 639 672 673 675 674 671 144 148 149 145 147 146 150 366 367 368 -318 319 320 596 597 599 598 595 631 629 625 628 627 626 630 -330 329 328 327 326 325 550 551 548 413 412 410 409 411 -341 340 337 339 336 335 338 559 562 643 642 -347 397 399 398 570 568 571 569 572 573 574 -358 359 360 394 396 391 393 392 395 648 644 647 645 -369 607 606 605 460 464 463 461 462 -383 381 541 540 539 538 537 664 665 662 663 661 -388 389 387 386 385 390 649 650 651 652 -417 415 414 449 451 452 447 450 448 505 507 510 506 511 508 509 -418 416 205 204 542 546 544 543 545 676 677 -427 426 428 425 423 424 586 588 585 587 583 584 -433 432 430 429 431 309 310 311 602 604 603 601 600 646 436 434 435 -439 438 437 91 86 89 90 88 87 170 171 172 632 633 634 635 -453 454 455 296 300 299 295 298 301 235 536 534 532 -468 465 469 466 467 264 250 248 251 249 252 518 519 517 516 -515 514 513 512 442 440 444 441 446 443 445 348 350 349 621 622 -547 549 582 233 232 132 577 576 575 578 0 





OBJ=
4526.284
BEST_KNOWN=
0.000